% Número total de personas
n = 35;

% Número de opiniones posibles
m = 5;

% Distribución inicial de personas por opinión
p = [13, 1, 9, 8, 4];

% Valores de las opiniones
v = [0.013, 0.162, 0.188, 0.314, 0.711];

% Costos extras al mover a opiniones vacías
ce = [4.934, 2.974, 7.896, 2.422, 4.729];

% Matriz de costos de mover de una opinión a otra
c = array2d(1..5, 1..5,
  [
    0.000,    1.278,    1.123,    1.199,    2.299,
    2.049,    0.000,    2.169,    3.251,    1.676,
    3.224,    3.322,    0.000,    1.731,    0.028,
    3.012,    4.473,    3.388,    0.000,    1.103,
    3.072,    2.482,    1.271,    0.548,    0.000
  ]);

% Costo total máximo permitido
ct = 8.440;

% Número máximo de movimientos permitidos
maxM = 20;
